maximize
OBJ:100x0 + 100x1 + 100x2 + 100x3 + 100x4 + 100x5 + 100x6 + 100x7 + 100x8 + 100x9 + 100x10 + 100x11 + 100x12 + 100x13 + 100x14 + 100x15 + 100x16 + 100x17 + 100x18 + 100x19 + 100x20 + 100x21 + 100x22 + 100x23 + 100x24 + 100x25 + 100x26 + 100x27 + 100x28 + 100x29 + 100x30 + 100x31 + 100x32 + 100x33 + 100x34 + 100x35 + 100x36 + 100x37 + 100x38 + 100x39 + 100x40 + 100x41 + 100x42 + 100x43 + 100x44 + 100x45 + 100x46 + 100x47 + 100x48 + 100x49 + 100x50 + 100x51 + 100x52 + 100x53 + 100x54 + 100x55 + 100x56 + 100x57 + 100x58 + 100x59 + 100x60 + 100x61 + 100x62 + 100x63 + 100x64 - y15_30 - y26_30 - y26_39 - y29_32 - y9_63 - y29_41 - y6_48 - y11_14 - y40_50 - y6_57 - y40_59 - y10_27 - y10_54 - y2_50 - y25_52 - y10_63 - y51_64 - y25_61 - y43_60 - y14_42 - y15_16 - y15_25 - y17_44 - y28_53 - y7_30 - y18_30 - y28_62 - y6_43 - y48_58 - y21_41 - y6_52 - y21_50 - y6_61 - y21_59 - y10_22 - y10_31 - y2_27 - y25_29 - y2_36 - y10_49 - y44_51 - y3_10 - y10_58 - y51_59 - y2_54 - y3_19 - y32_55 - y35_60 - y16_56 - y47_52 - y17_48 - y47_61 - y5_55 - y17_57 - y5_64 - y9_62 - y21_27 - y29_40 - y21_45 - y6_56 - y2_13 - y39_62 - y62_64 - y33_37 - y10_44 - y32_41 - y51_54 - y3_14 - y32_50 - y13_46 - y35_46 - y32_59 - y43_59 - y13_55 - y1_62 - y13_64 - y35_64 - y36_38 - y28_34 - y7_11 - y9_30 - y5_50 - y28_52 - y5_59 - y28_61 - y58_62 - y9_57 - y21_22 - y21_31 - y6_42 - y40_44 - y21_40 - y39_57 - y54_55 - y10_30 - y2_26 - y20_62 - y10_39 - y23_58 - y32_36 - y32_45 - y24_59 - y35_59 - y16_55 - y16_64 - y36_42 - y17_38 - y28_38 - y5_45 - y6_10 - y28_47 - y9_43 - y9_52 - y50_53 - y39_43 - y2_3 - y39_52 - y39_61 - y12_44 - y13_27 - y3_4 - y51_53 - y13_36 - y24_36 - y16_32 - y32_58 - y1_52 - y24_54 - y13_63 - y24_63 - y9_11 - y17_24 - y46_60 - y36_37 - y9_20 - y17_33 - y17_42 - y28_42 - y9_38 - y6_23 - y42_44 - y58_61 - y27_55 - y50_57 - y27_64 - y11_56 - y10_11 - y31_43 - y39_56 - y20_52 - y23_57 - y13_22 - y13_40 - y43_53 - y16_45 - y17_19 - y46_55 - y5_26 - y17_28 - y9_24 - y38_60 - y5_35 - y49_60 - y6_9 - y27_41 - y6_18 - y50_52 - y42_48 - y30_64 - y39_42 - y2_11 - y31_47 - y4_39 - y12_52 - y32_39 - y13_35 - y1_42 - y16_40 - y9_10 - y15_53 - y38_55 - y49_55 - y9_28 - y15_62 - y5_39 - y18_58 - y26_62 - y38_64 - y49_64 - y8_41 - y30_41 - y27_54 - y42_43 - y8_50 - y27_63 - y11_46 - y11_55 - y20_33 - y39_46 - y23_29 - y4_25 - y16_26 - y34_62 - y1_46 - y5_16 - y9_14 - y15_48 - y5_25 - y57_63 - y15_57 - y26_57 - y18_53 - y27_31 - y27_40 - y19_45 - y27_58 - y30_54 - y20_28 - y4_11 - y0_59 - y23_33 - y4_29 - y4_38 - y34_39 - y1_14 - y13_16 - y16_21 - y22_55 - y56_57 - y3_51 - y37_53 - y16_30 - y22_64 - y46_58 - y18_39 - y57_58 - y15_52 - y7_48 - y38_63 - y30_31 - y27_44 - y30_40 - y19_49 - y30_58 - y20_23 - y4_6 - y0_54 - y20_32 - y31_32 - y44_60 - y12_37 - y23_37 - y4_33 - y53_56 - y22_50 - y45_61 - y3_64 - y26_29 - y5_6 - y18_25 - y38_40 - y7_34 - y7_43 - y18_43 - y26_56 - y18_52 - y8_17 - y7_61 - y0_22 - y11_49 - y12_14 - y44_46 - y12_23 - y10_53 - y33_64 - y25_60 - y22_36 - y34_47 - y45_47 - y3_41 - y14_41 - y22_54 - y22_63 - y15_33 - y18_29 - y15_42 - y7_38 - y7_47 - y8_12 - y19_21 - y0_17 - y11_35 - y33_41 - y41_54 - y10_48 - y2_44 - y10_57 - y44_59 - y22_31 - y3_27 - y3_36 - y14_36 - y22_49 - y37_47 - y55_64 - y18_24 - y47_60 - y15_37 - y26_37 - y7_33 - y18_33 - y26_46 - y29_39 - y8_16 - y0_12 - y11_12 - y40_48 - y21_44 - y11_21 - y40_57 - y21_53 - y11_30 - y21_62 - y10_34 - y25_32 - y4_9 - y33_45 - y41_58 - y10_52 - y44_54 - y3_13 - y33_63 - y22_26 - y22_44 - y22_53 - y7_10 - y36_46 - y36_55 - y7_28 - y28_60 - y7_37 - y18_37 - y48_56 - y40_52 - y29_61 - y40_61 - y25_36 - y44_49 - y10_56 - y3_17 - y13_58 - y14_35 - y16_63 - y15_18 - y55_63 - y17_46 - y18_23 - y36_59 - y5_62 - y6_27 - y17_64 - y9_60 - y28_64 - y0_2 - y21_34 - y29_47 - y10_15 - y6_63 - y2_20 - y54_58 - y10_33 - y2_29 - y10_42 - y2_38 - y22_25 - y2_56 - y35_53 - y35_62 - y16_58 - y28_32 - y17_41 - y47_54 - y36_63 - y9_46 - y5_57 - y28_59 - y40_42 - y40_51 - y6_58 - y2_6 - y10_19 - y39_55 - y31_60 - y54_62 - y2_33 - y32_43 - y14_16 - y24_48 - y35_48 - y3_25 - y16_44 - y47_49 - y6_8 - y9_41 - y17_54 - y5_61 - y21_24 - y21_33 - y2_10 - y20_46 - y31_55 - y54_57 - y12_51 - y31_64 - y12_60 - y13_25 - y24_34 - y51_60 - y1_41 - y32_56 - y24_52 - y16_48 - y5_20 - y17_22 - y9_18 - y17_31 - y36_44 - y9_45 - y50_55 - y6_30 - y61_64 - y6_39 - y19_58 - y42_60 - y0_63 - y39_63 - y12_64 - y16_25 - y1_45 - y24_47 - y16_43 - y1_54 - y16_52 - y5_24 - y46_62 - y36_39 - y57_62 - y28_35 - y9_31 - y5_42 - y6_7 - y28_44 - y9_40 - y5_51 - y6_25 - y21_23 - y8_53 - y42_64 - y11_58 - y20_36 - y31_36 - y12_32 - y31_45 - y20_54 - y23_50 - y12_59 - y16_20 - y4_64 - y24_42 - y1_49 - y16_47 - y5_10 - y46_48 - y17_21 - y49_53 - y26_60 - y6_20 - y8_39 - y27_52 - y27_61 - y0_44 - y11_44 - y19_57 - y20_22 - y42_59 - y11_53 - y12_18 - y11_62 - y23_27 - y31_40 - y31_58 - y23_54 - y53_55 - y1_26 - y24_28 - y45_60 - y13_37 - y16_42 - y38_39 - y5_14 - y46_52 - y38_48 - y5_23 - y57_61 - y38_57 - y7_51 - y18_51 - y15_64 - y26_64 - y27_29 - y18_60 - y30_34 - y42_45 - y0_39 - y19_61 - y30_61 - y60_62 - y31_44 - y23_40 - y4_36 - y23_49 - y1_21 - y16_19 - y45_55 - y16_28 - y34_64 - y14_58 - y38_43 - y15_50 - y49_52 - y15_59 - y7_64 - y19_29 - y27_42 - y11_25 - y27_51 - y30_56 - y0_52 - y52_53 - y20_30 - y11_61 - y12_26 - y4_22 - y33_58 - y4_31 - y23_44 - y1_7 - y25_63 - y34_50 - y22_57 - y34_59 - y45_59 - y37_55 - y14_62 - y15_27 - y37_64 - y46_51 - y7_41 - y26_54 - y18_50 - y15_63 - y26_63 - y27_28 - y11_20 - y19_33 - y30_33 - y8_42 - y0_38 - y41_48 - y52_57 - y44_53 - y23_30 - y33_62 - y25_58 - y4_35 - y1_11 - y34_45 - y1_20 - y34_54 - y14_48 - y22_61 - y56_63 - y14_57 - y37_59 - y15_31 - y26_31 - y7_27 - y18_27 - y15_49 - y26_49 - y18_45 - y26_58 - y0_6 - y18_54 - y8_19 - y48_55 - y11_15 - y8_28 - y11_24 - y19_37 - y11_33 - y41_52 - y44_48 - y10_55 - y33_57 - y25_53 - y10_64 - y25_62 - y34_49 - y3_43 - y14_43 - y37_45 - y14_52 - y3_61 - y7_22 - y26_35 - y7_31 - y15_44 - y0_1 - y18_49 - y19_23 - y11_19 - y21_51 - y6_62 - y11_28 - y40_64 - y33_34 - y4_16 - y25_48 - y33_61 - y44_61 - y34_35 - y3_38
 Subject to
C1: x0+x1-y0_1 <=1 
C2: x0+x2-y0_2 <=1 
C3: x0+x4 <=1 
C4: x0+x6-y0_6 <=1 
C5: x0+x7 <=1 
C6: x0+x8 <=1 
C7: x0+x10 <=1 
C8: x0+x12-y0_12 <=1 
C9: x0+x14 <=1 
C10: x0+x15 <=1 
C11: x0+x16 <=1 
C12: x0+x17-y0_17 <=1 
C13: x0+x18 <=1 
C14: x0+x19 <=1 
C15: x0+x20 <=1 
C16: x0+x21 <=1 
C17: x0+x22-y0_22 <=1 
C18: x0+x23 <=1 
C19: x0+x28 <=1 
C20: x0+x29 <=1 
C21: x0+x31 <=1 
C22: x0+x32 <=1 
C23: x0+x37 <=1 
C24: x0+x38-y0_38 <=1 
C25: x0+x39-y0_39 <=1 
C26: x0+x42 <=1 
C27: x0+x44-y0_44 <=1 
C28: x0+x48 <=1 
C29: x0+x51 <=1 
C30: x0+x52-y0_52 <=1 
C31: x0+x53 <=1 
C32: x0+x54-y0_54 <=1 
C33: x0+x55 <=1 
C34: x0+x56 <=1 
C35: x0+x57 <=1 
C36: x0+x59-y0_59 <=1 
C37: x0+x60 <=1 
C38: x0+x62 <=1 
C39: x0+x63-y0_63 <=1 
C40: x0+x64 <=1 
C41: x1+x2 <=1 
C42: x1+x3 <=1 
C43: x1+x7-y1_7 <=1 
C44: x1+x8 <=1 
C45: x1+x9 <=1 
C46: x1+x10 <=1 
C47: x1+x11-y1_11 <=1 
C48: x1+x14-y1_14 <=1 
C49: x1+x16 <=1 
C50: x1+x18 <=1 
C51: x1+x20-y1_20 <=1 
C52: x1+x21-y1_21 <=1 
C53: x1+x25 <=1 
C54: x1+x26-y1_26 <=1 
C55: x1+x28 <=1 
C56: x1+x32 <=1 
C57: x1+x37 <=1 
C58: x1+x38 <=1 
C59: x1+x40 <=1 
C60: x1+x41-y1_41 <=1 
C61: x1+x42-y1_42 <=1 
C62: x1+x43 <=1 
C63: x1+x45-y1_45 <=1 
C64: x1+x46-y1_46 <=1 
C65: x1+x47 <=1 
C66: x1+x49-y1_49 <=1 
C67: x1+x50 <=1 
C68: x1+x51 <=1 
C69: x1+x52-y1_52 <=1 
C70: x1+x53 <=1 
C71: x1+x54-y1_54 <=1 
C72: x1+x55 <=1 
C73: x1+x59 <=1 
C74: x1+x60 <=1 
C75: x1+x61 <=1 
C76: x1+x62-y1_62 <=1 
C77: x1+x63 <=1 
C78: x1+x64 <=1 
C79: x2+x3-y2_3 <=1 
C80: x2+x6-y2_6 <=1 
C81: x2+x7 <=1 
C82: x2+x8 <=1 
C83: x2+x9 <=1 
C84: x2+x10-y2_10 <=1 
C85: x2+x11-y2_11 <=1 
C86: x2+x12 <=1 
C87: x2+x13-y2_13 <=1 
C88: x2+x14 <=1 
C89: x2+x18 <=1 
C90: x2+x20-y2_20 <=1 
C91: x2+x22 <=1 
C92: x2+x26-y2_26 <=1 
C93: x2+x27-y2_27 <=1 
C94: x2+x28 <=1 
C95: x2+x29-y2_29 <=1 
C96: x2+x30 <=1 
C97: x2+x33-y2_33 <=1 
C98: x2+x35 <=1 
C99: x2+x36-y2_36 <=1 
C100: x2+x38-y2_38 <=1 
C101: x2+x44-y2_44 <=1 
C102: x2+x50-y2_50 <=1 
C103: x2+x51 <=1 
C104: x2+x52 <=1 
C105: x2+x53 <=1 
C106: x2+x54-y2_54 <=1 
C107: x2+x56-y2_56 <=1 
C108: x2+x57 <=1 
C109: x2+x59 <=1 
C110: x2+x60 <=1 
C111: x2+x62 <=1 
C112: x2+x64 <=1 
C113: x3+x4-y3_4 <=1 
C114: x3+x5 <=1 
C115: x3+x9 <=1 
C116: x3+x10-y3_10 <=1 
C117: x3+x11 <=1 
C118: x3+x13-y3_13 <=1 
C119: x3+x14-y3_14 <=1 
C120: x3+x15 <=1 
C121: x3+x16 <=1 
C122: x3+x17-y3_17 <=1 
C123: x3+x19-y3_19 <=1 
C124: x3+x20 <=1 
C125: x3+x22 <=1 
C126: x3+x24 <=1 
C127: x3+x25-y3_25 <=1 
C128: x3+x26 <=1 
C129: x3+x27-y3_27 <=1 
C130: x3+x29 <=1 
C131: x3+x31 <=1 
C132: x3+x32 <=1 
C133: x3+x34 <=1 
C134: x3+x36-y3_36 <=1 
C135: x3+x38-y3_38 <=1 
C136: x3+x41-y3_41 <=1 
C137: x3+x42 <=1 
C138: x3+x43-y3_43 <=1 
C139: x3+x45 <=1 
C140: x3+x47 <=1 
C141: x3+x49 <=1 
C142: x3+x51-y3_51 <=1 
C143: x3+x52 <=1 
C144: x3+x55 <=1 
C145: x3+x56 <=1 
C146: x3+x57 <=1 
C147: x3+x61-y3_61 <=1 
C148: x3+x62 <=1 
C149: x3+x63 <=1 
C150: x3+x64-y3_64 <=1 
C151: x4+x6-y4_6 <=1 
C152: x4+x8 <=1 
C153: x4+x9-y4_9 <=1 
C154: x4+x10 <=1 
C155: x4+x11-y4_11 <=1 
C156: x4+x12 <=1 
C157: x4+x13 <=1 
C158: x4+x16-y4_16 <=1 
C159: x4+x18 <=1 
C160: x4+x20 <=1 
C161: x4+x22-y4_22 <=1 
C162: x4+x23 <=1 
C163: x4+x25-y4_25 <=1 
C164: x4+x26 <=1 
C165: x4+x27 <=1 
C166: x4+x28 <=1 
C167: x4+x29-y4_29 <=1 
C168: x4+x31-y4_31 <=1 
C169: x4+x33-y4_33 <=1 
C170: x4+x35-y4_35 <=1 
C171: x4+x36-y4_36 <=1 
C172: x4+x37 <=1 
C173: x4+x38-y4_38 <=1 
C174: x4+x39-y4_39 <=1 
C175: x4+x41 <=1 
C176: x4+x42 <=1 
C177: x4+x43 <=1 
C178: x4+x45 <=1 
C179: x4+x46 <=1 
C180: x4+x50 <=1 
C181: x4+x52 <=1 
C182: x4+x53 <=1 
C183: x4+x58 <=1 
C184: x4+x61 <=1 
C185: x4+x64-y4_64 <=1 
C186: x5+x6-y5_6 <=1 
C187: x5+x10-y5_10 <=1 
C188: x5+x11 <=1 
C189: x5+x12 <=1 
C190: x5+x14-y5_14 <=1 
C191: x5+x16-y5_16 <=1 
C192: x5+x17 <=1 
C193: x5+x20-y5_20 <=1 
C194: x5+x21 <=1 
C195: x5+x23-y5_23 <=1 
C196: x5+x24-y5_24 <=1 
C197: x5+x25-y5_25 <=1 
C198: x5+x26-y5_26 <=1 
C199: x5+x35-y5_35 <=1 
C200: x5+x38 <=1 
C201: x5+x39-y5_39 <=1 
C202: x5+x40 <=1 
C203: x5+x42-y5_42 <=1 
C204: x5+x45-y5_45 <=1 
C205: x5+x47 <=1 
C206: x5+x50-y5_50 <=1 
C207: x5+x51-y5_51 <=1 
C208: x5+x52 <=1 
C209: x5+x53 <=1 
C210: x5+x55-y5_55 <=1 
C211: x5+x56 <=1 
C212: x5+x57-y5_57 <=1 
C213: x5+x58 <=1 
C214: x5+x59-y5_59 <=1 
C215: x5+x60 <=1 
C216: x5+x61-y5_61 <=1 
C217: x5+x62-y5_62 <=1 
C218: x5+x64-y5_64 <=1 
C219: x6+x7-y6_7 <=1 
C220: x6+x8-y6_8 <=1 
C221: x6+x9-y6_9 <=1 
C222: x6+x10-y6_10 <=1 
C223: x6+x12 <=1 
C224: x6+x18-y6_18 <=1 
C225: x6+x19 <=1 
C226: x6+x20-y6_20 <=1 
C227: x6+x21 <=1 
C228: x6+x22 <=1 
C229: x6+x23-y6_23 <=1 
C230: x6+x25-y6_25 <=1 
C231: x6+x26 <=1 
C232: x6+x27-y6_27 <=1 
C233: x6+x28 <=1 
C234: x6+x30-y6_30 <=1 
C235: x6+x31 <=1 
C236: x6+x32 <=1 
C237: x6+x33 <=1 
C238: x6+x34 <=1 
C239: x6+x36 <=1 
C240: x6+x39-y6_39 <=1 
C241: x6+x40 <=1 
C242: x6+x42-y6_42 <=1 
C243: x6+x43-y6_43 <=1 
C244: x6+x48-y6_48 <=1 
C245: x6+x49 <=1 
C246: x6+x52-y6_52 <=1 
C247: x6+x53 <=1 
C248: x6+x54 <=1 
C249: x6+x55 <=1 
C250: x6+x56-y6_56 <=1 
C251: x6+x57-y6_57 <=1 
C252: x6+x58-y6_58 <=1 
C253: x6+x61-y6_61 <=1 
C254: x6+x62-y6_62 <=1 
C255: x6+x63-y6_63 <=1 
C256: x7+x10-y7_10 <=1 
C257: x7+x11-y7_11 <=1 
C258: x7+x13 <=1 
C259: x7+x15 <=1 
C260: x7+x16 <=1 
C261: x7+x22-y7_22 <=1 
C262: x7+x24 <=1 
C263: x7+x26 <=1 
C264: x7+x27-y7_27 <=1 
C265: x7+x28-y7_28 <=1 
C266: x7+x30-y7_30 <=1 
C267: x7+x31-y7_31 <=1 
C268: x7+x33-y7_33 <=1 
C269: x7+x34-y7_34 <=1 
C270: x7+x35 <=1 
C271: x7+x37-y7_37 <=1 
C272: x7+x38-y7_38 <=1 
C273: x7+x40 <=1 
C274: x7+x41-y7_41 <=1 
C275: x7+x43-y7_43 <=1 
C276: x7+x44 <=1 
C277: x7+x45 <=1 
C278: x7+x46 <=1 
C279: x7+x47-y7_47 <=1 
C280: x7+x48-y7_48 <=1 
C281: x7+x50 <=1 
C282: x7+x51-y7_51 <=1 
C283: x7+x53 <=1 
C284: x7+x60 <=1 
C285: x7+x61-y7_61 <=1 
C286: x7+x64-y7_64 <=1 
C287: x8+x11 <=1 
C288: x8+x12-y8_12 <=1 
C289: x8+x14 <=1 
C290: x8+x16-y8_16 <=1 
C291: x8+x17-y8_17 <=1 
C292: x8+x19-y8_19 <=1 
C293: x8+x21 <=1 
C294: x8+x22 <=1 
C295: x8+x24 <=1 
C296: x8+x25 <=1 
C297: x8+x28-y8_28 <=1 
C298: x8+x29 <=1 
C299: x8+x31 <=1 
C300: x8+x34 <=1 
C301: x8+x35 <=1 
C302: x8+x36 <=1 
C303: x8+x39-y8_39 <=1 
C304: x8+x41-y8_41 <=1 
C305: x8+x42-y8_42 <=1 
C306: x8+x50-y8_50 <=1 
C307: x8+x51 <=1 
C308: x8+x53-y8_53 <=1 
C309: x8+x54 <=1 
C310: x8+x55 <=1 
C311: x8+x57 <=1 
C312: x8+x63 <=1 
C313: x9+x10-y9_10 <=1 
C314: x9+x11-y9_11 <=1 
C315: x9+x13 <=1 
C316: x9+x14-y9_14 <=1 
C317: x9+x16 <=1 
C318: x9+x18-y9_18 <=1 
C319: x9+x19 <=1 
C320: x9+x20-y9_20 <=1 
C321: x9+x23 <=1 
C322: x9+x24-y9_24 <=1 
C323: x9+x25 <=1 
C324: x9+x28-y9_28 <=1 
C325: x9+x30-y9_30 <=1 
C326: x9+x31-y9_31 <=1 
C327: x9+x32 <=1 
C328: x9+x38-y9_38 <=1 
C329: x9+x40-y9_40 <=1 
C330: x9+x41-y9_41 <=1 
C331: x9+x43-y9_43 <=1 
C332: x9+x44 <=1 
C333: x9+x45-y9_45 <=1 
C334: x9+x46-y9_46 <=1 
C335: x9+x47 <=1 
C336: x9+x52-y9_52 <=1 
C337: x9+x54 <=1 
C338: x9+x55 <=1 
C339: x9+x57-y9_57 <=1 
C340: x9+x60-y9_60 <=1 
C341: x9+x61 <=1 
C342: x9+x62-y9_62 <=1 
C343: x9+x63-y9_63 <=1 
C344: x10+x11-y10_11 <=1 
C345: x10+x13 <=1 
C346: x10+x14 <=1 
C347: x10+x15-y10_15 <=1 
C348: x10+x17 <=1 
C349: x10+x18 <=1 
C350: x10+x19-y10_19 <=1 
C351: x10+x22-y10_22 <=1 
C352: x10+x23 <=1 
C353: x10+x27-y10_27 <=1 
C354: x10+x30-y10_30 <=1 
C355: x10+x31-y10_31 <=1 
C356: x10+x33-y10_33 <=1 
C357: x10+x34-y10_34 <=1 
C358: x10+x37 <=1 
C359: x10+x38 <=1 
C360: x10+x39-y10_39 <=1 
C361: x10+x40 <=1 
C362: x10+x42-y10_42 <=1 
C363: x10+x43 <=1 
C364: x10+x44-y10_44 <=1 
C365: x10+x48-y10_48 <=1 
C366: x10+x49-y10_49 <=1 
C367: x10+x52-y10_52 <=1 
C368: x10+x53-y10_53 <=1 
C369: x10+x54-y10_54 <=1 
C370: x10+x55-y10_55 <=1 
C371: x10+x56-y10_56 <=1 
C372: x10+x57-y10_57 <=1 
C373: x10+x58-y10_58 <=1 
C374: x10+x59 <=1 
C375: x10+x63-y10_63 <=1 
C376: x10+x64-y10_64 <=1 
C377: x11+x12-y11_12 <=1 
C378: x11+x13 <=1 
C379: x11+x14-y11_14 <=1 
C380: x11+x15-y11_15 <=1 
C381: x11+x18 <=1 
C382: x11+x19-y11_19 <=1 
C383: x11+x20-y11_20 <=1 
C384: x11+x21-y11_21 <=1 
C385: x11+x24-y11_24 <=1 
C386: x11+x25-y11_25 <=1 
C387: x11+x27 <=1 
C388: x11+x28-y11_28 <=1 
C389: x11+x30-y11_30 <=1 
C390: x11+x33-y11_33 <=1 
C391: x11+x35-y11_35 <=1 
C392: x11+x36 <=1 
C393: x11+x38 <=1 
C394: x11+x39 <=1 
C395: x11+x42 <=1 
C396: x11+x44-y11_44 <=1 
C397: x11+x46-y11_46 <=1 
C398: x11+x49-y11_49 <=1 
C399: x11+x52 <=1 
C400: x11+x53-y11_53 <=1 
C401: x11+x55-y11_55 <=1 
C402: x11+x56-y11_56 <=1 
C403: x11+x58-y11_58 <=1 
C404: x11+x60 <=1 
C405: x11+x61-y11_61 <=1 
C406: x11+x62-y11_62 <=1 
C407: x11+x64 <=1 
C408: x12+x13 <=1 
C409: x12+x14-y12_14 <=1 
C410: x12+x15 <=1 
C411: x12+x17 <=1 
C412: x12+x18-y12_18 <=1 
C413: x12+x19 <=1 
C414: x12+x20 <=1 
C415: x12+x22 <=1 
C416: x12+x23-y12_23 <=1 
C417: x12+x24 <=1 
C418: x12+x25 <=1 
C419: x12+x26-y12_26 <=1 
C420: x12+x27 <=1 
C421: x12+x31 <=1 
C422: x12+x32-y12_32 <=1 
C423: x12+x33 <=1 
C424: x12+x35 <=1 
C425: x12+x37-y12_37 <=1 
C426: x12+x42 <=1 
C427: x12+x44-y12_44 <=1 
C428: x12+x48 <=1 
C429: x12+x50 <=1 
C430: x12+x51-y12_51 <=1 
C431: x12+x52-y12_52 <=1 
C432: x12+x54 <=1 
C433: x12+x55 <=1 
C434: x12+x56 <=1 
C435: x12+x59-y12_59 <=1 
C436: x12+x60-y12_60 <=1 
C437: x12+x64-y12_64 <=1 
C438: x13+x15 <=1 
C439: x13+x16-y13_16 <=1 
C440: x13+x17 <=1 
C441: x13+x18 <=1 
C442: x13+x19 <=1 
C443: x13+x21 <=1 
C444: x13+x22-y13_22 <=1 
C445: x13+x23 <=1 
C446: x13+x25-y13_25 <=1 
C447: x13+x27-y13_27 <=1 
C448: x13+x28 <=1 
C449: x13+x29 <=1 
C450: x13+x33 <=1 
C451: x13+x35-y13_35 <=1 
C452: x13+x36-y13_36 <=1 
C453: x13+x37-y13_37 <=1 
C454: x13+x38 <=1 
C455: x13+x39 <=1 
C456: x13+x40-y13_40 <=1 
C457: x13+x44 <=1 
C458: x13+x46-y13_46 <=1 
C459: x13+x48 <=1 
C460: x13+x50 <=1 
C461: x13+x52 <=1 
C462: x13+x53 <=1 
C463: x13+x54 <=1 
C464: x13+x55-y13_55 <=1 
C465: x13+x58-y13_58 <=1 
C466: x13+x59 <=1 
C467: x13+x60 <=1 
C468: x13+x62 <=1 
C469: x13+x63-y13_63 <=1 
C470: x13+x64-y13_64 <=1 
C471: x14+x16-y14_16 <=1 
C472: x14+x17 <=1 
C473: x14+x19 <=1 
C474: x14+x22 <=1 
C475: x14+x23 <=1 
C476: x14+x24 <=1 
C477: x14+x27 <=1 
C478: x14+x28 <=1 
C479: x14+x31 <=1 
C480: x14+x35-y14_35 <=1 
C481: x14+x36-y14_36 <=1 
C482: x14+x38 <=1 
C483: x14+x39 <=1 
C484: x14+x40 <=1 
C485: x14+x41-y14_41 <=1 
C486: x14+x42-y14_42 <=1 
C487: x14+x43-y14_43 <=1 
C488: x14+x46 <=1 
C489: x14+x48-y14_48 <=1 
C490: x14+x49 <=1 
C491: x14+x50 <=1 
C492: x14+x51 <=1 
C493: x14+x52-y14_52 <=1 
C494: x14+x55 <=1 
C495: x14+x57-y14_57 <=1 
C496: x14+x58-y14_58 <=1 
C497: x14+x59 <=1 
C498: x14+x62-y14_62 <=1 
C499: x14+x63 <=1 
C500: x14+x64 <=1 
C501: x15+x16-y15_16 <=1 
C502: x15+x18-y15_18 <=1 
C503: x15+x24 <=1 
C504: x15+x25-y15_25 <=1 
C505: x15+x26 <=1 
C506: x15+x27-y15_27 <=1 
C507: x15+x29 <=1 
C508: x15+x30-y15_30 <=1 
C509: x15+x31-y15_31 <=1 
C510: x15+x32 <=1 
C511: x15+x33-y15_33 <=1 
C512: x15+x34 <=1 
C513: x15+x35 <=1 
C514: x15+x36 <=1 
C515: x15+x37-y15_37 <=1 
C516: x15+x38 <=1 
C517: x15+x40 <=1 
C518: x15+x42-y15_42 <=1 
C519: x15+x44-y15_44 <=1 
C520: x15+x45 <=1 
C521: x15+x46 <=1 
C522: x15+x47 <=1 
C523: x15+x48-y15_48 <=1 
C524: x15+x49-y15_49 <=1 
C525: x15+x50-y15_50 <=1 
C526: x15+x52-y15_52 <=1 
C527: x15+x53-y15_53 <=1 
C528: x15+x57-y15_57 <=1 
C529: x15+x58 <=1 
C530: x15+x59-y15_59 <=1 
C531: x15+x62-y15_62 <=1 
C532: x15+x63-y15_63 <=1 
C533: x15+x64-y15_64 <=1 
C534: x16+x17 <=1 
C535: x16+x19-y16_19 <=1 
C536: x16+x20-y16_20 <=1 
C537: x16+x21-y16_21 <=1 
C538: x16+x23 <=1 
C539: x16+x25-y16_25 <=1 
C540: x16+x26-y16_26 <=1 
C541: x16+x27 <=1 
C542: x16+x28-y16_28 <=1 
C543: x16+x30-y16_30 <=1 
C544: x16+x31 <=1 
C545: x16+x32-y16_32 <=1 
C546: x16+x33 <=1 
C547: x16+x34 <=1 
C548: x16+x35 <=1 
C549: x16+x37 <=1 
C550: x16+x39 <=1 
C551: x16+x40-y16_40 <=1 
C552: x16+x42-y16_42 <=1 
C553: x16+x43-y16_43 <=1 
C554: x16+x44-y16_44 <=1 
C555: x16+x45-y16_45 <=1 
C556: x16+x47-y16_47 <=1 
C557: x16+x48-y16_48 <=1 
C558: x16+x50 <=1 
C559: x16+x51 <=1 
C560: x16+x52-y16_52 <=1 
C561: x16+x55-y16_55 <=1 
C562: x16+x56-y16_56 <=1 
C563: x16+x58-y16_58 <=1 
C564: x16+x60 <=1 
C565: x16+x63-y16_63 <=1 
C566: x16+x64-y16_64 <=1 
C567: x17+x18 <=1 
C568: x17+x19-y17_19 <=1 
C569: x17+x20 <=1 
C570: x17+x21-y17_21 <=1 
C571: x17+x22-y17_22 <=1 
C572: x17+x24-y17_24 <=1 
C573: x17+x28-y17_28 <=1 
C574: x17+x30 <=1 
C575: x17+x31-y17_31 <=1 
C576: x17+x32 <=1 
C577: x17+x33-y17_33 <=1 
C578: x17+x38-y17_38 <=1 
C579: x17+x39 <=1 
C580: x17+x41-y17_41 <=1 
C581: x17+x42-y17_42 <=1 
C582: x17+x44-y17_44 <=1 
C583: x17+x46-y17_46 <=1 
C584: x17+x48-y17_48 <=1 
C585: x17+x52 <=1 
C586: x17+x54-y17_54 <=1 
C587: x17+x55 <=1 
C588: x17+x56 <=1 
C589: x17+x57-y17_57 <=1 
C590: x17+x58 <=1 
C591: x17+x59 <=1 
C592: x17+x60 <=1 
C593: x17+x61 <=1 
C594: x17+x63 <=1 
C595: x17+x64-y17_64 <=1 
C596: x18+x21 <=1 
C597: x18+x22 <=1 
C598: x18+x23-y18_23 <=1 
C599: x18+x24-y18_24 <=1 
C600: x18+x25-y18_25 <=1 
C601: x18+x27-y18_27 <=1 
C602: x18+x29-y18_29 <=1 
C603: x18+x30-y18_30 <=1 
C604: x18+x32 <=1 
C605: x18+x33-y18_33 <=1 
C606: x18+x34 <=1 
C607: x18+x37-y18_37 <=1 
C608: x18+x39-y18_39 <=1 
C609: x18+x40 <=1 
C610: x18+x43-y18_43 <=1 
C611: x18+x45-y18_45 <=1 
C612: x18+x46 <=1 
C613: x18+x47 <=1 
C614: x18+x48 <=1 
C615: x18+x49-y18_49 <=1 
C616: x18+x50-y18_50 <=1 
C617: x18+x51-y18_51 <=1 
C618: x18+x52-y18_52 <=1 
C619: x18+x53-y18_53 <=1 
C620: x18+x54-y18_54 <=1 
C621: x18+x58-y18_58 <=1 
C622: x18+x60-y18_60 <=1 
C623: x18+x62 <=1 
C624: x19+x20 <=1 
C625: x19+x21-y19_21 <=1 
C626: x19+x23-y19_23 <=1 
C627: x19+x24 <=1 
C628: x19+x26 <=1 
C629: x19+x28 <=1 
C630: x19+x29-y19_29 <=1 
C631: x19+x30 <=1 
C632: x19+x33-y19_33 <=1 
C633: x19+x35 <=1 
C634: x19+x37-y19_37 <=1 
C635: x19+x39 <=1 
C636: x19+x40 <=1 
C637: x19+x43 <=1 
C638: x19+x44 <=1 
C639: x19+x45-y19_45 <=1 
C640: x19+x47 <=1 
C641: x19+x48 <=1 
C642: x19+x49-y19_49 <=1 
C643: x19+x50 <=1 
C644: x19+x52 <=1 
C645: x19+x53 <=1 
C646: x19+x54 <=1 
C647: x19+x56 <=1 
C648: x19+x57-y19_57 <=1 
C649: x19+x58-y19_58 <=1 
C650: x19+x61-y19_61 <=1 
C651: x19+x63 <=1 
C652: x20+x22-y20_22 <=1 
C653: x20+x23-y20_23 <=1 
C654: x20+x28-y20_28 <=1 
C655: x20+x29 <=1 
C656: x20+x30-y20_30 <=1 
C657: x20+x31 <=1 
C658: x20+x32-y20_32 <=1 
C659: x20+x33-y20_33 <=1 
C660: x20+x34 <=1 
C661: x20+x36-y20_36 <=1 
C662: x20+x39 <=1 
C663: x20+x41 <=1 
C664: x20+x42 <=1 
C665: x20+x43 <=1 
C666: x20+x44 <=1 
C667: x20+x46-y20_46 <=1 
C668: x20+x48 <=1 
C669: x20+x49 <=1 
C670: x20+x52-y20_52 <=1 
C671: x20+x53 <=1 
C672: x20+x54-y20_54 <=1 
C673: x20+x55 <=1 
C674: x20+x56 <=1 
C675: x20+x58 <=1 
C676: x20+x59 <=1 
C677: x20+x61 <=1 
C678: x20+x62-y20_62 <=1 
C679: x21+x22-y21_22 <=1 
C680: x21+x23-y21_23 <=1 
C681: x21+x24-y21_24 <=1 
C682: x21+x25 <=1 
C683: x21+x27-y21_27 <=1 
C684: x21+x28 <=1 
C685: x21+x29 <=1 
C686: x21+x31-y21_31 <=1 
C687: x21+x33-y21_33 <=1 
C688: x21+x34-y21_34 <=1 
C689: x21+x35 <=1 
C690: x21+x36 <=1 
C691: x21+x37 <=1 
C692: x21+x38 <=1 
C693: x21+x40-y21_40 <=1 
C694: x21+x41-y21_41 <=1 
C695: x21+x43 <=1 
C696: x21+x44-y21_44 <=1 
C697: x21+x45-y21_45 <=1 
C698: x21+x47 <=1 
C699: x21+x50-y21_50 <=1 
C700: x21+x51-y21_51 <=1 
C701: x21+x52 <=1 
C702: x21+x53-y21_53 <=1 
C703: x21+x54 <=1 
C704: x21+x55 <=1 
C705: x21+x59-y21_59 <=1 
C706: x21+x61 <=1 
C707: x21+x62-y21_62 <=1 
C708: x21+x63 <=1 
C709: x22+x23 <=1 
C710: x22+x25-y22_25 <=1 
C711: x22+x26-y22_26 <=1 
C712: x22+x29 <=1 
C713: x22+x31-y22_31 <=1 
C714: x22+x32 <=1 
C715: x22+x34 <=1 
C716: x22+x36-y22_36 <=1 
C717: x22+x43 <=1 
C718: x22+x44-y22_44 <=1 
C719: x22+x45 <=1 
C720: x22+x47 <=1 
C721: x22+x49-y22_49 <=1 
C722: x22+x50-y22_50 <=1 
C723: x22+x51 <=1 
C724: x22+x53-y22_53 <=1 
C725: x22+x54-y22_54 <=1 
C726: x22+x55-y22_55 <=1 
C727: x22+x56 <=1 
C728: x22+x57-y22_57 <=1 
C729: x22+x60 <=1 
C730: x22+x61-y22_61 <=1 
C731: x22+x63-y22_63 <=1 
C732: x22+x64-y22_64 <=1 
C733: x23+x26 <=1 
C734: x23+x27-y23_27 <=1 
C735: x23+x28 <=1 
C736: x23+x29-y23_29 <=1 
C737: x23+x30-y23_30 <=1 
C738: x23+x31 <=1 
C739: x23+x32 <=1 
C740: x23+x33-y23_33 <=1 
C741: x23+x34 <=1 
C742: x23+x36 <=1 
C743: x23+x37-y23_37 <=1 
C744: x23+x38 <=1 
C745: x23+x39 <=1 
C746: x23+x40-y23_40 <=1 
C747: x23+x42 <=1 
C748: x23+x43 <=1 
C749: x23+x44-y23_44 <=1 
C750: x23+x46 <=1 
C751: x23+x47 <=1 
C752: x23+x49-y23_49 <=1 
C753: x23+x50-y23_50 <=1 
C754: x23+x51 <=1 
C755: x23+x52 <=1 
C756: x23+x53 <=1 
C757: x23+x54-y23_54 <=1 
C758: x23+x55 <=1 
C759: x23+x57-y23_57 <=1 
C760: x23+x58-y23_58 <=1 
C761: x23+x61 <=1 
C762: x24+x27 <=1 
C763: x24+x28-y24_28 <=1 
C764: x24+x29 <=1 
C765: x24+x30 <=1 
C766: x24+x31 <=1 
C767: x24+x32 <=1 
C768: x24+x34-y24_34 <=1 
C769: x24+x35 <=1 
C770: x24+x36-y24_36 <=1 
C771: x24+x37 <=1 
C772: x24+x38 <=1 
C773: x24+x40 <=1 
C774: x24+x42-y24_42 <=1 
C775: x24+x43 <=1 
C776: x24+x47-y24_47 <=1 
C777: x24+x48-y24_48 <=1 
C778: x24+x49 <=1 
C779: x24+x50 <=1 
C780: x24+x51 <=1 
C781: x24+x52-y24_52 <=1 
C782: x24+x54-y24_54 <=1 
C783: x24+x59-y24_59 <=1 
C784: x24+x61 <=1 
C785: x24+x62 <=1 
C786: x24+x63-y24_63 <=1 
C787: x25+x26 <=1 
C788: x25+x28 <=1 
C789: x25+x29-y25_29 <=1 
C790: x25+x30 <=1 
C791: x25+x31 <=1 
C792: x25+x32-y25_32 <=1 
C793: x25+x36-y25_36 <=1 
C794: x25+x37 <=1 
C795: x25+x39 <=1 
C796: x25+x40 <=1 
C797: x25+x43 <=1 
C798: x25+x45 <=1 
C799: x25+x48-y25_48 <=1 
C800: x25+x50 <=1 
C801: x25+x51 <=1 
C802: x25+x52-y25_52 <=1 
C803: x25+x53-y25_53 <=1 
C804: x25+x54 <=1 
C805: x25+x55 <=1 
C806: x25+x57 <=1 
C807: x25+x58-y25_58 <=1 
C808: x25+x60-y25_60 <=1 
C809: x25+x61-y25_61 <=1 
C810: x25+x62-y25_62 <=1 
C811: x25+x63-y25_63 <=1 
C812: x26+x29-y26_29 <=1 
C813: x26+x30-y26_30 <=1 
C814: x26+x31-y26_31 <=1 
C815: x26+x33 <=1 
C816: x26+x35-y26_35 <=1 
C817: x26+x37-y26_37 <=1 
C818: x26+x39-y26_39 <=1 
C819: x26+x40 <=1 
C820: x26+x44 <=1 
C821: x26+x46-y26_46 <=1 
C822: x26+x47 <=1 
C823: x26+x48 <=1 
C824: x26+x49-y26_49 <=1 
C825: x26+x51 <=1 
C826: x26+x52 <=1 
C827: x26+x54-y26_54 <=1 
C828: x26+x55 <=1 
C829: x26+x56-y26_56 <=1 
C830: x26+x57-y26_57 <=1 
C831: x26+x58-y26_58 <=1 
C832: x26+x59 <=1 
C833: x26+x60-y26_60 <=1 
C834: x26+x61 <=1 
C835: x26+x62-y26_62 <=1 
C836: x26+x63-y26_63 <=1 
C837: x26+x64-y26_64 <=1 
C838: x27+x28-y27_28 <=1 
C839: x27+x29-y27_29 <=1 
C840: x27+x30 <=1 
C841: x27+x31-y27_31 <=1 
C842: x27+x33 <=1 
C843: x27+x34 <=1 
C844: x27+x37 <=1 
C845: x27+x38 <=1 
C846: x27+x39 <=1 
C847: x27+x40-y27_40 <=1 
C848: x27+x41-y27_41 <=1 
C849: x27+x42-y27_42 <=1 
C850: x27+x44-y27_44 <=1 
C851: x27+x46 <=1 
C852: x27+x48 <=1 
C853: x27+x50 <=1 
C854: x27+x51-y27_51 <=1 
C855: x27+x52-y27_52 <=1 
C856: x27+x54-y27_54 <=1 
C857: x27+x55-y27_55 <=1 
C858: x27+x58-y27_58 <=1 
C859: x27+x60 <=1 
C860: x27+x61-y27_61 <=1 
C861: x27+x62 <=1 
C862: x27+x63-y27_63 <=1 
C863: x27+x64-y27_64 <=1 
C864: x28+x29 <=1 
C865: x28+x30 <=1 
C866: x28+x32-y28_32 <=1 
C867: x28+x33 <=1 
C868: x28+x34-y28_34 <=1 
C869: x28+x35-y28_35 <=1 
C870: x28+x36 <=1 
C871: x28+x37 <=1 
C872: x28+x38-y28_38 <=1 
C873: x28+x41 <=1 
C874: x28+x42-y28_42 <=1 
C875: x28+x43 <=1 
C876: x28+x44-y28_44 <=1 
C877: x28+x47-y28_47 <=1 
C878: x28+x50 <=1 
C879: x28+x52-y28_52 <=1 
C880: x28+x53-y28_53 <=1 
C881: x28+x57 <=1 
C882: x28+x58 <=1 
C883: x28+x59-y28_59 <=1 
C884: x28+x60-y28_60 <=1 
C885: x28+x61-y28_61 <=1 
C886: x28+x62-y28_62 <=1 
C887: x28+x64-y28_64 <=1 
C888: x29+x30 <=1 
C889: x29+x31 <=1 
C890: x29+x32-y29_32 <=1 
C891: x29+x34 <=1 
C892: x29+x36 <=1 
C893: x29+x38 <=1 
C894: x29+x39-y29_39 <=1 
C895: x29+x40-y29_40 <=1 
C896: x29+x41-y29_41 <=1 
C897: x29+x45 <=1 
C898: x29+x47-y29_47 <=1 
C899: x29+x48 <=1 
C900: x29+x51 <=1 
C901: x29+x53 <=1 
C902: x29+x54 <=1 
C903: x29+x56 <=1 
C904: x29+x61-y29_61 <=1 
C905: x29+x63 <=1 
C906: x29+x64 <=1 
C907: x30+x31-y30_31 <=1 
C908: x30+x33-y30_33 <=1 
C909: x30+x34-y30_34 <=1 
C910: x30+x36 <=1 
C911: x30+x37 <=1 
C912: x30+x38 <=1 
C913: x30+x39 <=1 
C914: x30+x40-y30_40 <=1 
C915: x30+x41-y30_41 <=1 
C916: x30+x46 <=1 
C917: x30+x51 <=1 
C918: x30+x53 <=1 
C919: x30+x54-y30_54 <=1 
C920: x30+x56-y30_56 <=1 
C921: x30+x58-y30_58 <=1 
C922: x30+x59 <=1 
C923: x30+x61-y30_61 <=1 
C924: x30+x63 <=1 
C925: x30+x64-y30_64 <=1 
C926: x31+x32-y31_32 <=1 
C927: x31+x35 <=1 
C928: x31+x36-y31_36 <=1 
C929: x31+x38 <=1 
C930: x31+x40-y31_40 <=1 
C931: x31+x43-y31_43 <=1 
C932: x31+x44-y31_44 <=1 
C933: x31+x45-y31_45 <=1 
C934: x31+x46 <=1 
C935: x31+x47-y31_47 <=1 
C936: x31+x50 <=1 
C937: x31+x55-y31_55 <=1 
C938: x31+x57 <=1 
C939: x31+x58-y31_58 <=1 
C940: x31+x60-y31_60 <=1 
C941: x31+x61 <=1 
C942: x31+x62 <=1 
C943: x31+x63 <=1 
C944: x31+x64-y31_64 <=1 
C945: x32+x33 <=1 
C946: x32+x36-y32_36 <=1 
C947: x32+x39-y32_39 <=1 
C948: x32+x41-y32_41 <=1 
C949: x32+x43-y32_43 <=1 
C950: x32+x45-y32_45 <=1 
C951: x32+x46 <=1 
C952: x32+x47 <=1 
C953: x32+x48 <=1 
C954: x32+x49 <=1 
C955: x32+x50-y32_50 <=1 
C956: x32+x51 <=1 
C957: x32+x53 <=1 
C958: x32+x55-y32_55 <=1 
C959: x32+x56-y32_56 <=1 
C960: x32+x57 <=1 
C961: x32+x58-y32_58 <=1 
C962: x32+x59-y32_59 <=1 
C963: x32+x63 <=1 
C964: x32+x64 <=1 
C965: x33+x34-y33_34 <=1 
C966: x33+x37-y33_37 <=1 
C967: x33+x38 <=1 
C968: x33+x39 <=1 
C969: x33+x40 <=1 
C970: x33+x41-y33_41 <=1 
C971: x33+x42 <=1 
C972: x33+x44 <=1 
C973: x33+x45-y33_45 <=1 
C974: x33+x46 <=1 
C975: x33+x47 <=1 
C976: x33+x48 <=1 
C977: x33+x50 <=1 
C978: x33+x52 <=1 
C979: x33+x53 <=1 
C980: x33+x57-y33_57 <=1 
C981: x33+x58-y33_58 <=1 
C982: x33+x61-y33_61 <=1 
C983: x33+x62-y33_62 <=1 
C984: x33+x63-y33_63 <=1 
C985: x33+x64-y33_64 <=1 
C986: x34+x35-y34_35 <=1 
C987: x34+x36 <=1 
C988: x34+x39-y34_39 <=1 
C989: x34+x40 <=1 
C990: x34+x41 <=1 
C991: x34+x42 <=1 
C992: x34+x44 <=1 
C993: x34+x45-y34_45 <=1 
C994: x34+x47-y34_47 <=1 
C995: x34+x48 <=1 
C996: x34+x49-y34_49 <=1 
C997: x34+x50-y34_50 <=1 
C998: x34+x52 <=1 
C999: x34+x54-y34_54 <=1 
C1000: x34+x55 <=1 
C1001: x34+x57 <=1 
C1002: x34+x59-y34_59 <=1 
C1003: x34+x60 <=1 
C1004: x34+x61 <=1 
C1005: x34+x62-y34_62 <=1 
C1006: x34+x64-y34_64 <=1 
C1007: x35+x38 <=1 
C1008: x35+x41 <=1 
C1009: x35+x46-y35_46 <=1 
C1010: x35+x47 <=1 
C1011: x35+x48-y35_48 <=1 
C1012: x35+x49 <=1 
C1013: x35+x50 <=1 
C1014: x35+x53-y35_53 <=1 
C1015: x35+x54 <=1 
C1016: x35+x55 <=1 
C1017: x35+x57 <=1 
C1018: x35+x59-y35_59 <=1 
C1019: x35+x60-y35_60 <=1 
C1020: x35+x62-y35_62 <=1 
C1021: x35+x63 <=1 
C1022: x35+x64-y35_64 <=1 
C1023: x36+x37-y36_37 <=1 
C1024: x36+x38-y36_38 <=1 
C1025: x36+x39-y36_39 <=1 
C1026: x36+x40 <=1 
C1027: x36+x41 <=1 
C1028: x36+x42-y36_42 <=1 
C1029: x36+x44-y36_44 <=1 
C1030: x36+x45 <=1 
C1031: x36+x46-y36_46 <=1 
C1032: x36+x47 <=1 
C1033: x36+x49 <=1 
C1034: x36+x52 <=1 
C1035: x36+x53 <=1 
C1036: x36+x54 <=1 
C1037: x36+x55-y36_55 <=1 
C1038: x36+x59-y36_59 <=1 
C1039: x36+x61 <=1 
C1040: x36+x62 <=1 
C1041: x36+x63-y36_63 <=1 
C1042: x36+x64 <=1 
C1043: x37+x43 <=1 
C1044: x37+x44 <=1 
C1045: x37+x45-y37_45 <=1 
C1046: x37+x47-y37_47 <=1 
C1047: x37+x48 <=1 
C1048: x37+x51 <=1 
C1049: x37+x52 <=1 
C1050: x37+x53-y37_53 <=1 
C1051: x37+x54 <=1 
C1052: x37+x55-y37_55 <=1 
C1053: x37+x58 <=1 
C1054: x37+x59-y37_59 <=1 
C1055: x37+x60 <=1 
C1056: x37+x62 <=1 
C1057: x37+x64-y37_64 <=1 
C1058: x38+x39-y38_39 <=1 
C1059: x38+x40-y38_40 <=1 
C1060: x38+x41 <=1 
C1061: x38+x43-y38_43 <=1 
C1062: x38+x48-y38_48 <=1 
C1063: x38+x50 <=1 
C1064: x38+x51 <=1 
C1065: x38+x55-y38_55 <=1 
C1066: x38+x57-y38_57 <=1 
C1067: x38+x58 <=1 
C1068: x38+x60-y38_60 <=1 
C1069: x38+x61 <=1 
C1070: x38+x62 <=1 
C1071: x38+x63-y38_63 <=1 
C1072: x38+x64-y38_64 <=1 
C1073: x39+x40 <=1 
C1074: x39+x41 <=1 
C1075: x39+x42-y39_42 <=1 
C1076: x39+x43-y39_43 <=1 
C1077: x39+x44 <=1 
C1078: x39+x45 <=1 
C1079: x39+x46-y39_46 <=1 
C1080: x39+x48 <=1 
C1081: x39+x52-y39_52 <=1 
C1082: x39+x55-y39_55 <=1 
C1083: x39+x56-y39_56 <=1 
C1084: x39+x57-y39_57 <=1 
C1085: x39+x60 <=1 
C1086: x39+x61-y39_61 <=1 
C1087: x39+x62-y39_62 <=1 
C1088: x39+x63-y39_63 <=1 
C1089: x39+x64 <=1 
C1090: x40+x42-y40_42 <=1 
C1091: x40+x44-y40_44 <=1 
C1092: x40+x45 <=1 
C1093: x40+x46 <=1 
C1094: x40+x48-y40_48 <=1 
C1095: x40+x50-y40_50 <=1 
C1096: x40+x51-y40_51 <=1 
C1097: x40+x52-y40_52 <=1 
C1098: x40+x54 <=1 
C1099: x40+x57-y40_57 <=1 
C1100: x40+x59-y40_59 <=1 
C1101: x40+x60 <=1 
C1102: x40+x61-y40_61 <=1 
C1103: x40+x62 <=1 
C1104: x40+x63 <=1 
C1105: x40+x64-y40_64 <=1 
C1106: x41+x42 <=1 
C1107: x41+x48-y41_48 <=1 
C1108: x41+x49 <=1 
C1109: x41+x50 <=1 
C1110: x41+x52-y41_52 <=1 
C1111: x41+x53 <=1 
C1112: x41+x54-y41_54 <=1 
C1113: x41+x55 <=1 
C1114: x41+x56 <=1 
C1115: x41+x58-y41_58 <=1 
C1116: x41+x62 <=1 
C1117: x41+x64 <=1 
C1118: x42+x43-y42_43 <=1 
C1119: x42+x44-y42_44 <=1 
C1120: x42+x45-y42_45 <=1 
C1121: x42+x46 <=1 
C1122: x42+x47 <=1 
C1123: x42+x48-y42_48 <=1 
C1124: x42+x49 <=1 
C1125: x42+x51 <=1 
C1126: x42+x54 <=1 
C1127: x42+x55 <=1 
C1128: x42+x57 <=1 
C1129: x42+x59-y42_59 <=1 
C1130: x42+x60-y42_60 <=1 
C1131: x42+x63 <=1 
C1132: x42+x64-y42_64 <=1 
C1133: x43+x45 <=1 
C1134: x43+x47 <=1 
C1135: x43+x48 <=1 
C1136: x43+x49 <=1 
C1137: x43+x53-y43_53 <=1 
C1138: x43+x58 <=1 
C1139: x43+x59-y43_59 <=1 
C1140: x43+x60-y43_60 <=1 
C1141: x43+x61 <=1 
C1142: x43+x63 <=1 
C1143: x43+x64 <=1 
C1144: x44+x45 <=1 
C1145: x44+x46-y44_46 <=1 
C1146: x44+x48-y44_48 <=1 
C1147: x44+x49-y44_49 <=1 
C1148: x44+x50 <=1 
C1149: x44+x51-y44_51 <=1 
C1150: x44+x52 <=1 
C1151: x44+x53-y44_53 <=1 
C1152: x44+x54-y44_54 <=1 
C1153: x44+x55 <=1 
C1154: x44+x58 <=1 
C1155: x44+x59-y44_59 <=1 
C1156: x44+x60-y44_60 <=1 
C1157: x44+x61-y44_61 <=1 
C1158: x44+x63 <=1 
C1159: x45+x47-y45_47 <=1 
C1160: x45+x48 <=1 
C1161: x45+x51 <=1 
C1162: x45+x53 <=1 
C1163: x45+x54 <=1 
C1164: x45+x55-y45_55 <=1 
C1165: x45+x58 <=1 
C1166: x45+x59-y45_59 <=1 
C1167: x45+x60-y45_60 <=1 
C1168: x45+x61-y45_61 <=1 
C1169: x46+x48-y46_48 <=1 
C1170: x46+x49 <=1 
C1171: x46+x51-y46_51 <=1 
C1172: x46+x52-y46_52 <=1 
C1173: x46+x53 <=1 
C1174: x46+x55-y46_55 <=1 
C1175: x46+x56 <=1 
C1176: x46+x58-y46_58 <=1 
C1177: x46+x59 <=1 
C1178: x46+x60-y46_60 <=1 
C1179: x46+x61 <=1 
C1180: x46+x62-y46_62 <=1 
C1181: x46+x64 <=1 
C1182: x47+x49-y47_49 <=1 
C1183: x47+x50 <=1 
C1184: x47+x51 <=1 
C1185: x47+x52-y47_52 <=1 
C1186: x47+x54-y47_54 <=1 
C1187: x47+x55 <=1 
C1188: x47+x59 <=1 
C1189: x47+x60-y47_60 <=1 
C1190: x47+x61-y47_61 <=1 
C1191: x47+x64 <=1 
C1192: x48+x50 <=1 
C1193: x48+x52 <=1 
C1194: x48+x55-y48_55 <=1 
C1195: x48+x56-y48_56 <=1 
C1196: x48+x58-y48_58 <=1 
C1197: x48+x59 <=1 
C1198: x48+x60 <=1 
C1199: x48+x61 <=1 
C1200: x49+x51 <=1 
C1201: x49+x52-y49_52 <=1 
C1202: x49+x53-y49_53 <=1 
C1203: x49+x55-y49_55 <=1 
C1204: x49+x58 <=1 
C1205: x49+x60-y49_60 <=1 
C1206: x49+x64-y49_64 <=1 
C1207: x50+x52-y50_52 <=1 
C1208: x50+x53-y50_53 <=1 
C1209: x50+x55-y50_55 <=1 
C1210: x50+x57-y50_57 <=1 
C1211: x50+x59 <=1 
C1212: x50+x60 <=1 
C1213: x51+x53-y51_53 <=1 
C1214: x51+x54-y51_54 <=1 
C1215: x51+x58 <=1 
C1216: x51+x59-y51_59 <=1 
C1217: x51+x60-y51_60 <=1 
C1218: x51+x63 <=1 
C1219: x51+x64-y51_64 <=1 
C1220: x52+x53-y52_53 <=1 
C1221: x52+x54 <=1 
C1222: x52+x55 <=1 
C1223: x52+x57-y52_57 <=1 
C1224: x52+x61 <=1 
C1225: x52+x62 <=1 
C1226: x52+x64 <=1 
C1227: x53+x54 <=1 
C1228: x53+x55-y53_55 <=1 
C1229: x53+x56-y53_56 <=1 
C1230: x53+x58 <=1 
C1231: x53+x59 <=1 
C1232: x53+x63 <=1 
C1233: x54+x55-y54_55 <=1 
C1234: x54+x57-y54_57 <=1 
C1235: x54+x58-y54_58 <=1 
C1236: x54+x62-y54_62 <=1 
C1237: x55+x59 <=1 
C1238: x55+x62 <=1 
C1239: x55+x63-y55_63 <=1 
C1240: x55+x64-y55_64 <=1 
C1241: x56+x57-y56_57 <=1 
C1242: x56+x59 <=1 
C1243: x56+x60 <=1 
C1244: x56+x62 <=1 
C1245: x56+x63-y56_63 <=1 
C1246: x57+x58-y57_58 <=1 
C1247: x57+x59 <=1 
C1248: x57+x60 <=1 
C1249: x57+x61-y57_61 <=1 
C1250: x57+x62-y57_62 <=1 
C1251: x57+x63-y57_63 <=1 
C1252: x57+x64 <=1 
C1253: x58+x59 <=1 
C1254: x58+x61-y58_61 <=1 
C1255: x58+x62-y58_62 <=1 
C1256: x59+x60 <=1 
C1257: x59+x61 <=1 
C1258: x59+x63 <=1 
C1259: x60+x61 <=1 
C1260: x60+x62-y60_62 <=1 
C1261: x60+x63 <=1 
C1262: x60+x64 <=1 
C1263: x61+x63 <=1 
C1264: x61+x64-y61_64 <=1 
C1265: x62+x64-y62_64 <=1 

binary
x0
x1
x2
x3
x4
x5
x6
x7
x8
x9
x10
x11
x12
x13
x14
x15
x16
x17
x18
x19
x20
x21
x22
x23
x24
x25
x26
x27
x28
x29
x30
x31
x32
x33
x34
x35
x36
x37
x38
x39
x40
x41
x42
x43
x44
x45
x46
x47
x48
x49
x50
x51
x52
x53
x54
x55
x56
x57
x58
x59
x60
x61
x62
x63
x64
